c description: Perfect Matching Principle on 
c generator: CNFgen (0.9.0)
c copyright: (C) 2012-2020 Massimo Lauria <massimo.lauria@uniroma1.it>
c url: https://massimolauria.net/cnfgen
c
p cnf 40 293
-1 -2 0
-1 -3 0
-1 -4 0
-1 -5 0
-1 -6 0
-1 -7 0
-1 -8 0
-2 -3 0
-2 -4 0
-2 -5 0
-2 -6 0
-2 -7 0
-2 -8 0
-3 -4 0
-3 -5 0
-3 -6 0
-3 -7 0
-3 -8 0
-4 -5 0
-4 -6 0
-4 -7 0
-4 -8 0
-5 -6 0
-5 -7 0
-5 -8 0
-6 -7 0
-6 -8 0
-7 -8 0
1 2 3 4 5 6 7 8 0
-1 -9 0
-1 -10 0
-1 -11 0
-1 -12 0
-1 -13 0
-1 -14 0
-1 -15 0
-9 -10 0
-9 -11 0
-9 -12 0
-9 -13 0
-9 -14 0
-9 -15 0
-10 -11 0
-10 -12 0
-10 -13 0
-10 -14 0
-10 -15 0
-11 -12 0
-11 -13 0
-11 -14 0
-11 -15 0
-12 -13 0
-12 -14 0
-12 -15 0
-13 -14 0
-13 -15 0
-14 -15 0
1 9 10 11 12 13 14 15 0
-2 -9 0
-2 -16 0
-2 -17 0
-2 -18 0
-2 -19 0
-2 -20 0
-2 -21 0
-2 -22 0
-9 -16 0
-9 -17 0
-9 -18 0
-9 -19 0
-9 -20 0
-9 -21 0
-9 -22 0
-16 -17 0
-16 -18 0
-16 -19 0
-16 -20 0
-16 -21 0
-16 -22 0
-17 -18 0
-17 -19 0
-17 -20 0
-17 -21 0
-17 -22 0
-18 -19 0
-18 -20 0
-18 -21 0
-18 -22 0
-19 -20 0
-19 -21 0
-19 -22 0
-20 -21 0
-20 -22 0
-21 -22 0
2 9 16 17 18 19 20 21 22 0
-3 -10 0
-3 -16 0
-3 -23 0
-3 -24 0
-3 -25 0
-3 -26 0
-10 -16 0
-10 -23 0
-10 -24 0
-10 -25 0
-10 -26 0
-16 -23 0
-16 -24 0
-16 -25 0
-16 -26 0
-23 -24 0
-23 -25 0
-23 -26 0
-24 -25 0
-24 -26 0
-25 -26 0
3 10 16 23 24 25 26 0
-4 -11 0
-4 -17 0
-4 -27 0
-4 -28 0
-4 -29 0
-4 -30 0
-4 -31 0
-11 -17 0
-11 -27 0
-11 -28 0
-11 -29 0
-11 -30 0
-11 -31 0
-17 -27 0
-17 -28 0
-17 -29 0
-17 -30 0
-17 -31 0
-27 -28 0
-27 -29 0
-27 -30 0
-27 -31 0
-28 -29 0
-28 -30 0
-28 -31 0
-29 -30 0
-29 -31 0
-30 -31 0
4 11 17 27 28 29 30 31 0
-12 -18 0
-12 -23 0
-12 -27 0
-12 -32 0
-12 -33 0
-12 -34 0
-18 -23 0
-18 -27 0
-18 -32 0
-18 -33 0
-18 -34 0
-23 -27 0
-23 -32 0
-23 -33 0
-23 -34 0
-27 -32 0
-27 -33 0
-27 -34 0
-32 -33 0
-32 -34 0
-33 -34 0
12 18 23 27 32 33 34 0
-5 -13 0
-5 -19 0
-5 -28 0
-5 -35 0
-5 -36 0
-5 -37 0
-13 -19 0
-13 -28 0
-13 -35 0
-13 -36 0
-13 -37 0
-19 -28 0
-19 -35 0
-19 -36 0
-19 -37 0
-28 -35 0
-28 -36 0
-28 -37 0
-35 -36 0
-35 -37 0
-36 -37 0
5 13 19 28 35 36 37 0
-6 -20 0
-6 -24 0
-6 -29 0
-6 -32 0
-6 -35 0
-6 -38 0
-6 -39 0
-20 -24 0
-20 -29 0
-20 -32 0
-20 -35 0
-20 -38 0
-20 -39 0
-24 -29 0
-24 -32 0
-24 -35 0
-24 -38 0
-24 -39 0
-29 -32 0
-29 -35 0
-29 -38 0
-29 -39 0
-32 -35 0
-32 -38 0
-32 -39 0
-35 -38 0
-35 -39 0
-38 -39 0
6 20 24 29 32 35 38 39 0
-7 -14 0
-7 -21 0
-7 -25 0
-7 -30 0
-7 -33 0
-7 -36 0
-7 -38 0
-7 -40 0
-14 -21 0
-14 -25 0
-14 -30 0
-14 -33 0
-14 -36 0
-14 -38 0
-14 -40 0
-21 -25 0
-21 -30 0
-21 -33 0
-21 -36 0
-21 -38 0
-21 -40 0
-25 -30 0
-25 -33 0
-25 -36 0
-25 -38 0
-25 -40 0
-30 -33 0
-30 -36 0
-30 -38 0
-30 -40 0
-33 -36 0
-33 -38 0
-33 -40 0
-36 -38 0
-36 -40 0
-38 -40 0
7 14 21 25 30 33 36 38 40 0
-8 -15 0
-8 -22 0
-8 -26 0
-8 -31 0
-8 -34 0
-8 -37 0
-8 -39 0
-8 -40 0
-15 -22 0
-15 -26 0
-15 -31 0
-15 -34 0
-15 -37 0
-15 -39 0
-15 -40 0
-22 -26 0
-22 -31 0
-22 -34 0
-22 -37 0
-22 -39 0
-22 -40 0
-26 -31 0
-26 -34 0
-26 -37 0
-26 -39 0
-26 -40 0
-31 -34 0
-31 -37 0
-31 -39 0
-31 -40 0
-34 -37 0
-34 -39 0
-34 -40 0
-37 -39 0
-37 -40 0
-39 -40 0
8 15 22 26 31 34 37 39 40 0